p td 120 119
0 1
0 4
0 7
0 9
0 11
0 16
0 19
0 39
0 50
0 53
0 75
0 80
0 82
0 101
0 104
0 115
1 2
1 6
1 10
1 17
1 25
1 26
1 29
1 33
1 37
1 41
1 42
1 45
1 47
1 58
1 84
1 86
1 89
1 92
1 105
2 3
2 12
2 31
2 62
2 65
2 83
2 93
2 108
4 5
5 13
5 24
5 44
5 46
5 68
5 70
5 98
6 8
6 38
6 59
6 66
6 67
6 69
6 79
6 88
6 90
6 95
6 102
6 116
7 15
7 32
9 20
9 21
9 23
9 27
9 28
9 40
9 55
9 87
9 91
10 14
10 51
10 73
11 49
12 61
13 111
17 18
17 30
18 107
20 22
20 57
20 63
20 77
24 34
26 35
26 36
26 72
27 76
30 106
31 94
32 117
32 119
34 43
34 48
36 71
40 64
42 112
43 54
43 114
45 52
45 78
47 74
50 85
51 109
52 56
52 99
53 60
66 110
69 96
71 103
73 81
80 113
83 100
95 97
105 118
